instances/pace2017_tw_bonus/MD5-32-1.gaifman_4.gr
p tw 225 705
1 23
1 32
1 33
1 34
2 27
2 35
2 36
2 37
3 59
3 66
3 67
3 68
4 61
4 70
4 72
4 73
4 221
5 62
5 73
5 75
5 76
5 219
5 221
5 222
5 223
6 63
6 76
6 78
6 79
6 220
6 223
6 224
6 225
7 64
7 79
7 81
7 82
7 225
8 122
8 126
8 127
8 128
9 23
9 139
9 144
9 145
9 146
9 147
9 148
10 27
10 141
10 149
10 150
10 152
10 153
10 154
11 29
11 142
11 151
11 153
11 155
11 156
11 157
12 40
12 162
12 169
12 170
12 172
12 173
12 213
13 41
13 163
13 171
13 172
13 174
13 175
13 176
13 214
14 43
14 164
14 173
14 175
14 177
14 178
14 180
14 181
14 211
14 212
14 213
14 214
14 215
14 216
14 217
14 218
15 46
15 165
15 176
15 180
15 182
15 183
15 185
15 186
15 217
16 48
16 166
16 181
16 185
16 187
16 188
16 218
17 51
17 167
17 189
17 190
17 192
17 193
17 194
18 54
18 168
18 191
18 193
18 195
18 196
18 197
19 106
19 199
19 200
19 201
19 202
19 203
19 204
20 132
20 205
20 206
20 207
20 208
20 209
20 210
21 26
21 27
21 28
22 41
22 42
22 58
22 103
22 121
22 138
22 145
23 31
23 32
23 33
23 34
23 42
23 43
23 44
23 45
23 59
23 106
23 122
23 139
23 144
23 145
23 146
23 147
23 148
24 34
24 45
24 46
24 47
24 60
24 109
24 123
24 140
24 147
25 35
25 49
25 50
25 61
25 150
25 151
26 27
26 28
27 35
27 36
27 37
27 38
27 50
27 51
27 52
27 53
27 62
27 115
27 124
27 141
27 149
27 150
27 152
27 153
27 154
28 29
29 39
29 53
29 54
29 55
29 56
29 63
29 118
29 125
29 142
29 151
29 153
29 155
29 156
29 157
30 56
30 57
30 64
30 154
30 156
31 42
31 44
31 45
32 33
32 34
35 36
35 37
38 50
38 52
38 53
39 53
39 55
39 56
40 90
40 100
40 101
40 102
40 162
40 169
40 170
40 172
40 173
41 58
41 92
41 102
41 103
41 104
41 105
41 121
41 130
41 138
41 163
41 171
41 172
41 174
41 175
41 176
42 44
42 45
43 44
43 59
43 94
43 105
43 106
43 107
43 108
43 122
43 132
43 139
43 164
43 173
43 175
43 177
43 180
43 181
45 47
46 47
46 60
46 96
46 108
46 109
46 110
46 111
46 123
46 135
46 140
46 165
46 176
46 180
46 182
46 185
46 186
48 98
48 111
48 112
48 113
48 166
48 181
48 185
48 187
48 188
49 61
49 114
49 190
49 191
50 52
50 53
51 52
51 62
51 85
51 114
51 115
51 116
51 117
51 124
51 136
51 141
51 167
51 189
51 190
51 192
51 193
51 194
53 55
53 56
54 55
54 63
54 86
54 117
54 118
54 119
54 120
54 125
54 137
54 142
54 168
54 191
54 193
54 195
54 196
54 197
57 64
57 120
57 194
57 196
58 66
59 66
59 67
59 68
60 68
61 70
61 71
61 72
61 73
62 73
62 74
62 75
62 76
63 76
63 77
63 78
63 79
64 79
64 80
64 81
64 82
65 82
65 83
65 84
66 67
66 68
69 70
69 87
69 88
69 89
70 72
70 73
71 72
71 89
71 90
71 91
73 75
73 76
74 75
74 91
74 92
74 93
76 78
76 79
77 78
77 93
77 94
77 95
79 81
79 82
80 81
80 95
80 96
80 97
82 84
83 84
83 97
83 98
83 99
85 114
85 116
85 117
86 117
86 119
86 120
87 88
87 89
88 100
89 90
89 91
90 100
90 101
90 102
91 92
91 93
92 102
92 104
92 105
93 94
93 95
94 105
94 107
94 108
95 96
95 97
96 108
96 110
96 111
97 98
97 99
98 111
98 112
98 113
99 113
100 101
100 102
102 104
102 105
103 104
103 121
103 130
103 131
103 138
103 163
103 201
105 107
105 108
106 107
106 122
106 129
106 131
106 132
106 133
106 134
106 139
106 159
106 164
106 199
106 200
106 201
106 202
106 203
106 204
108 110
108 111
109 110
109 123
109 134
109 135
109 140
109 165
109 203
111 112
111 113
114 116
114 117
115 116
115 124
115 136
115 141
115 167
117 119
117 120
118 119
118 125
118 137
118 142
118 168
121 126
122 126
122 127
122 128
123 128
126 127
126 128
129 131
129 133
129 134
130 138
130 158
130 163
130 207
131 133
131 134
132 133
132 139
132 143
132 158
132 159
132 160
132 161
132 164
132 198
132 199
132 205
132 206
132 207
132 208
132 209
132 210
135 140
135 161
135 165
135 209
136 141
136 167
137 142
137 168
138 145
139 144
139 145
139 146
139 147
139 148
140 147
141 149
141 150
141 152
141 153
141 154
142 151
142 153
142 155
142 156
142 157
143 158
143 160
143 161
144 145
144 147
144 148
145 147
145 148
149 150
149 153
149 154
150 153
150 154
151 153
151 156
151 157
153 156
153 157
154 156
158 160
158 161
159 160
159 164
159 198
159 199
159 205
162 169
162 170
162 172
162 173
163 171
163 172
163 174
163 175
163 176
164 173
164 175
164 177
164 180
164 181
165 176
165 180
165 182
165 185
165 186
166 181
166 185
166 187
166 188
167 189
167 190
167 192
167 193
167 194
168 191
168 193
168 195
168 196
168 197
169 170
169 172
169 173
170 172
170 173
171 172
171 175
171 176
172 175
172 176
173 175
173 179
173 180
173 181
175 178
175 179
175 180
175 181
176 180
176 184
176 185
176 186
177 178
178 179
180 183
180 184
180 185
180 186
181 185
181 187
181 188
182 183
183 184
185 187
185 188
186 187
189 190
189 193
189 194
190 193
190 194
191 193
191 196
191 197
193 196
193 197
194 196
198 199
198 205
199 200
199 201
199 202
199 203
199 204
200 201
200 203
200 204
201 203
201 204
205 206
205 207
205 208
205 209
205 210
206 207
206 209
206 210
207 209
207 210
211 212
211 213
211 214
211 215
211 217
211 218
212 213
212 214
212 215
212 217
212 218
213 214
213 217
213 218
214 216
214 217
214 218
215 216
219 221
219 222
219 223
220 223
220 224
220 225
221 222
221 223
223 224
223 225
